words_train/words_770_SAT.qaiger
aag 64 16 0 1 48
16
30
18
2
6
32
4
12
10
20
14
22
8
28
26
24
128
34 23 21
36 34 25
38 36 27
40 38 29
42 30 14
44 31 15
46 39 28
48 47 13
50 49 45
52 50 43
54 53 41
56 33 17
58 32 16
60 59 57
62 61 43
64 63 13
66 65 40
68 27 10
70 26 11
72 71 69
74 73 9
76 75 37
78 35 24
80 79 73
82 81 76
84 20 5
86 21 4
88 87 85
90 88 83
92 46 12
94 22 20
96 95 35
98 97 6
100 96 7
102 101 99
104 102 93
106 104 90
108 81 9
110 109 77
112 60 45
114 19 2
116 18 3
118 117 115
120 119 113
122 120 111
124 122 106
126 124 67
128 126 55
i0 1 x[7]
i1 2 z[6]
i2 2 z[0]
i3 1 x[0]
i4 1 x[2]
i5 2 z[7]
i6 1 x[1]
i7 1 x[5]
i8 1 x[4]
i9 2 z[1]
i10 1 x[6]
i11 2 z[2]
i12 1 x[3]
i13 2 z[5]
i14 2 z[4]
i15 2 z[3]
o0 bool[0]
c
simplified
  ==
    1 x
    add
      add
        << 7
          1
        unary minus
          2 z
      1
