words_train/words_770_SAT.qaiger.qdimacs
p cnf 64 145
a 1 2 3 4 5 6 7 8 0
e 9 10 11 12 13 14 15 16 17 18 19 20 21 22 23 24 25 26 27 28 29 30 31 32 33 34 35 36 37 38 39 40 41 42 43 44 45 46 47 48 49 50 51 52 53 54 55 56 57 58 59 60 61 62 63 64 0
11 10 17 0
-11 -17 0
-10 -17 0
-17 12 18 0
17 -18 0
-12 -18 0
-18 13 19 0
18 -19 0
-13 -19 0
-19 14 20 0
19 -20 0
-14 -20 0
-15 -7 21 0
15 -21 0
7 -21 0
15 7 22 0
-15 -22 0
-7 -22 0
19 -14 23 0
-19 -23 0
14 -23 0
23 6 24 0
-23 -24 0
-6 -24 0
24 22 25 0
-24 -25 0
-22 -25 0
-25 21 26 0
25 -26 0
-21 -26 0
26 20 27 0
-26 -27 0
-20 -27 0
16 8 28 0
-16 -28 0
-8 -28 0
-16 -8 29 0
16 -29 0
8 -29 0
29 28 30 0
-29 -30 0
-28 -30 0
30 21 31 0
-30 -31 0
-21 -31 0
31 6 32 0
-31 -32 0
-6 -32 0
32 -20 33 0
-32 -33 0
20 -33 0
13 -5 34 0
-13 -34 0
5 -34 0
-13 5 35 0
13 -35 0
-5 -35 0
35 34 36 0
-35 -36 0
-34 -36 0
36 4 37 0
-36 -37 0
-4 -37 0
37 18 38 0
-37 -38 0
-18 -38 0
17 -12 39 0
-17 -39 0
12 -39 0
39 36 40 0
-39 -40 0
-36 -40 0
40 -38 41 0
-40 -41 0
38 -41 0
-10 2 42 0
10 -42 0
-2 -42 0
10 -2 43 0
-10 -43 0
2 -43 0
43 42 44 0
-43 -44 0
-42 -44 0
-44 41 45 0
44 -45 0
-41 -45 0
-23 -6 46 0
23 -46 0
6 -46 0
-11 -10 47 0
11 -47 0
10 -47 0
47 17 48 0
-47 -48 0
-17 -48 0
48 -3 49 0
-48 -49 0
3 -49 0
-48 3 50 0
48 -50 0
-3 -50 0
50 49 51 0
-50 -51 0
-49 -51 0
-51 46 52 0
51 -52 0
-46 -52 0
-52 -45 53 0
52 -53 0
45 -53 0
40 4 54 0
-40 -54 0
-4 -54 0
54 38 55 0
-54 -55 0
-38 -55 0
-30 22 56 0
30 -56 0
-22 -56 0
9 -1 57 0
-9 -57 0
1 -57 0
-9 1 58 0
9 -58 0
-1 -58 0
58 57 59 0
-58 -59 0
-57 -59 0
59 56 60 0
-59 -60 0
-56 -60 0
-60 55 61 0
60 -61 0
-55 -61 0
-61 -53 62 0
61 -62 0
53 -62 0
-62 33 63 0
62 -63 0
-33 -63 0
-63 27 64 0
63 -64 0
-27 -64 0
64 0
